Route #1: 19 6 50 2 11 16 17 44 
Route #2: 7 20 9 32 23 4 
Route #3: 53 15 3 43 48 26 31 
Route #4: 14 12 10 34 22 46 27 18 36 21 
Route #5: 35 42 47 52 25 49 41 38 13 28 33 
Route #6: 54 45 39 37 30 24 
Route #7: 5 8 40 51 29 
cost 1253.58
